(set-logic QF_S)
(declare-fun T_5 () Bool)
(declare-fun T_7 () Bool)
(declare-fun T_SELECT_1 () Bool)
(declare-fun T_SELECT_2 () Bool)
(declare-fun PCTEMP_LHS_1 () Int)
(declare-fun PCTEMP_LHS_2 () Int)
(declare-fun T0_8 () String)
(declare-fun T1_8 () String)
(declare-fun var_0xINPUT_100558 () String)
(assert (= var_0xINPUT_100558 (str.++ T0_8 T1_8)))
(assert (not (str.in.re T1_8 (str.to.re ";"))))
(assert T_7)
(assert (= T_7 (< PCTEMP_LHS_2 0)))
(assert (= PCTEMP_LHS_2 (- 1)))
(assert (= T_SELECT_2 (not (= PCTEMP_LHS_2 (- 1)))))
(assert (= T_SELECT_1 (not (= PCTEMP_LHS_1 (- 1)))))
(assert T_5)
(assert (= T_5 (< (- 1) PCTEMP_LHS_1)))
(assert (= PCTEMP_LHS_1 (str.len T0_8))) ; len 0
(assert (not T_SELECT_2))
(check-sat)
